NAME          
ROWS
 N  OBJ
 L  c1
 L  c2
 L  c3
 L  c4
 L  c5
COLUMNS
    MARKER    'MARKER'                 'INTORG'
    x[1]      c1        570
    x[1]      c2        840
    x[1]      c3        656
    x[1]      c4        269
    x[1]      c5        516
    x[1]      OBJ       -704
    x[2]      c1        757
    x[2]      c2        182
    x[2]      c3        980
    x[2]      c4        421
    x[2]      c5        935
    x[2]      OBJ       -658
    x[3]      c1        624
    x[3]      c2        911
    x[3]      c3        7
    x[3]      c4        765
    x[3]      c5        147
    x[3]      OBJ       -968
    x[4]      c1        435
    x[4]      c2        623
    x[4]      c3        91
    x[4]      c4        62
    x[4]      c5        542
    x[4]      OBJ       -993
    x[5]      c1        229
    x[5]      c2        802
    x[5]      c3        924
    x[5]      c4        643
    x[5]      c5        273
    x[5]      OBJ       -740
    x[6]      c1        453
    x[6]      c2        859
    x[6]      c3        488
    x[6]      c4        808
    x[6]      c5        81
    x[6]      OBJ       -23
    x[7]      c1        536
    x[7]      c2        466
    x[7]      c3        485
    x[7]      c4        11
    x[7]      c5        519
    x[7]      OBJ       -506
    x[8]      c1        319
    x[8]      c2        119
    x[8]      c3        754
    x[8]      c4        193
    x[8]      c5        675
    x[8]      OBJ       -480
    x[9]      c1        871
    x[9]      c2        233
    x[9]      c3        144
    x[9]      c4        119
    x[9]      c5        442
    x[9]      OBJ       -627
    x[10]     c1        484
    x[10]     c2        173
    x[10]     c3        619
    x[10]     c4        598
    x[10]     c5        502
    x[10]     OBJ       -333
    x[11]     c1        694
    x[11]     c2        565
    x[11]     c3        582
    x[11]     c4        701
    x[11]     c5        446
    x[11]     OBJ       -261
    x[12]     c1        137
    x[12]     c2        746
    x[12]     c3        9
    x[12]     c4        591
    x[12]     c5        733
    x[12]     OBJ       -562
    x[13]     c1        985
    x[13]     c2        670
    x[13]     c3        644
    x[13]     c4        886
    x[13]     c5        486
    x[13]     OBJ       -423
    x[14]     c1        542
    x[14]     c2        475
    x[14]     c3        363
    x[14]     c4        28
    x[14]     c5        588
    x[14]     OBJ       -202
    x[15]     c1        747
    x[15]     c2        928
    x[15]     c3        264
    x[15]     c4        428
    x[15]     c5        187
    x[15]     OBJ       -241
    x[16]     c1        234
    x[16]     c2        301
    x[16]     c3        711
    x[16]     c4        913
    x[16]     c5        884
    x[16]     OBJ       -772
    x[17]     c1        833
    x[17]     c2        909
    x[17]     c3        792
    x[17]     c4        8
    x[17]     c5        28
    x[17]     OBJ       -41
    x[18]     c1        721
    x[18]     c2        813
    x[18]     c3        356
    x[18]     c4        637
    x[18]     c5        640
    x[18]     OBJ       -699
    x[19]     c1        57
    x[19]     c2        760
    x[19]     c3        435
    x[19]     c4        435
    x[19]     c5        454
    x[19]     OBJ       -893
    x[20]     c1        128
    x[20]     c2        65
    x[20]     c3        335
    x[20]     c4        504
    x[20]     c5        759
    x[20]     OBJ       -444
    x[21]     c1        822
    x[21]     c2        661
    x[21]     c3        467
    x[21]     c4        724
    x[21]     c5        77
    x[21]     OBJ       -175
    x[22]     c1        685
    x[22]     c2        405
    x[22]     c3        849
    x[22]     c4        557
    x[22]     c5        815
    x[22]     OBJ       -30
    x[23]     c1        722
    x[23]     c2        328
    x[23]     c3        528
    x[23]     c4        300
    x[23]     c5        711
    x[23]     OBJ       -391
    x[24]     c1        689
    x[24]     c2        561
    x[24]     c3        892
    x[24]     c4        912
    x[24]     c5        635
    x[24]     OBJ       -178
    x[25]     c1        10
    x[25]     c2        581
    x[25]     c3        676
    x[25]     c4        58
    x[25]     c5        927
    x[25]     OBJ       -716
    x[26]     c1        117
    x[26]     c2        699
    x[26]     c3        454
    x[26]     c4        619
    x[26]     c5        352
    x[26]     OBJ       -464
    x[27]     c1        974
    x[27]     c2        232
    x[27]     c3        491
    x[27]     c4        51
    x[27]     c5        660
    x[27]     OBJ       -984
    x[28]     c1        180
    x[28]     c2        204
    x[28]     c3        177
    x[28]     c4        156
    x[28]     c5        79
    x[28]     OBJ       -713
    x[29]     c1        607
    x[29]     c2        980
    x[29]     c3        859
    x[29]     c4        209
    x[29]     c5        164
    x[29]     OBJ       -655
    x[30]     c1        466
    x[30]     c2        627
    x[30]     c3        411
    x[30]     c4        778
    x[30]     c5        451
    x[30]     OBJ       -324
    x[31]     c1        528
    x[31]     c2        443
    x[31]     c3        68
    x[31]     c4        290
    x[31]     c5        7
    x[31]     OBJ       -407
    x[32]     c1        340
    x[32]     c2        812
    x[32]     c3        441
    x[32]     c4        479
    x[32]     c5        843
    x[32]     OBJ       -256
    x[33]     c1        510
    x[33]     c2        548
    x[33]     c3        282
    x[33]     c4        286
    x[33]     c5        401
    x[33]     OBJ       -219
    x[34]     c1        794
    x[34]     c2        732
    x[34]     c3        556
    x[34]     c4        48
    x[34]     c5        184
    x[34]     OBJ       -506
    x[35]     c1        638
    x[35]     c2        938
    x[35]     c3        221
    x[35]     c4        260
    x[35]     c5        283
    x[35]     OBJ       -747
    x[36]     c1        454
    x[36]     c2        909
    x[36]     c3        47
    x[36]     c4        574
    x[36]     c5        318
    x[36]     OBJ       -981
    x[37]     c1        117
    x[37]     c2        125
    x[37]     c3        651
    x[37]     c4        354
    x[37]     c5        328
    x[37]     OBJ       -294
    x[38]     c1        124
    x[38]     c2        214
    x[38]     c3        35
    x[38]     c4        734
    x[38]     c5        400
    x[38]     OBJ       -612
    x[39]     c1        502
    x[39]     c2        717
    x[39]     c3        179
    x[39]     c4        649
    x[39]     c5        36
    x[39]     OBJ       -579
    x[40]     c1        953
    x[40]     c2        998
    x[40]     c3        431
    x[40]     c4        761
    x[40]     c5        349
    x[40]     OBJ       -747
    x[41]     c1        675
    x[41]     c2        253
    x[41]     c3        307
    x[41]     c4        640
    x[41]     c5        495
    x[41]     OBJ       -132
    x[42]     c1        755
    x[42]     c2        172
    x[42]     c3        226
    x[42]     c4        61
    x[42]     c5        423
    x[42]     OBJ       -342
    x[43]     c1        305
    x[43]     c2        781
    x[43]     c3        884
    x[43]     c4        258
    x[43]     c5        208
    x[43]     OBJ       -515
    x[44]     c1        257
    x[44]     c2        583
    x[44]     c3        527
    x[44]     c4        605
    x[44]     c5        159
    x[44]     OBJ       -477
    x[45]     c1        216
    x[45]     c2        104
    x[45]     c3        106
    x[45]     c4        803
    x[45]     c5        117
    x[45]     OBJ       -606
RHS
    rhs       c1        11398
    rhs       c2        12524
    rhs       c3        10202
    rhs       c4        10093
    rhs       c5        9630
RANGES
BOUNDS
 BV bounds    x[1]
 BV bounds    x[2]
 BV bounds    x[3]
 BV bounds    x[4]
 BV bounds    x[5]
 BV bounds    x[6]
 BV bounds    x[7]
 BV bounds    x[8]
 BV bounds    x[9]
 BV bounds    x[10]
 BV bounds    x[11]
 BV bounds    x[12]
 BV bounds    x[13]
 BV bounds    x[14]
 BV bounds    x[15]
 BV bounds    x[16]
 BV bounds    x[17]
 BV bounds    x[18]
 BV bounds    x[19]
 BV bounds    x[20]
 BV bounds    x[21]
 BV bounds    x[22]
 BV bounds    x[23]
 BV bounds    x[24]
 BV bounds    x[25]
 BV bounds    x[26]
 BV bounds    x[27]
 BV bounds    x[28]
 BV bounds    x[29]
 BV bounds    x[30]
 BV bounds    x[31]
 BV bounds    x[32]
 BV bounds    x[33]
 BV bounds    x[34]
 BV bounds    x[35]
 BV bounds    x[36]
 BV bounds    x[37]
 BV bounds    x[38]
 BV bounds    x[39]
 BV bounds    x[40]
 BV bounds    x[41]
 BV bounds    x[42]
 BV bounds    x[43]
 BV bounds    x[44]
 BV bounds    x[45]
ENDATA
